100
32
7
27
3
18
3
16
5
1
5
4
20
12
2
6
6
27
24
5
4
15
19
12
18
10
7
6
21
16
2
20
19
1
22
2
12
2
24
5
20
25
4
18
3
17
8
29
16
19
19
15
3
17
2
3
29
17
25
17
6
6
7
18
20
2
25
25
25
22
2
5
22
8
9
7
13
23
21
1
13
2
22
21
11
9
21
20
20
23
3
15
3
1
7
10
15
2
14
1
13
13